Gurobi Optimizer version 9.1.2 build v9.1.2rc0 (linux64)
Thread count: 36 physical cores, 72 logical processors, using up to 32 threads
Optimize a model with 12 rows, 57 columns and 590 nonzeros
Model fingerprint: 0xf32eec78
Model has 47 quadratic constraints
Coefficient statistics:
  Matrix range     [2e-05, 3e+00]
  QMatrix range    [1e+00, 1e+00]
  QLMatrix range   [1e+00, 1e+00]
  Objective range  [8e-03, 7e-01]
  Bounds range     [1e+00, 1e+00]
  RHS range        [1e+00, 1e+00]
Presolve removed 9 rows and 0 columns

Continuous model is non-convex -- solving as a MIP.

Presolve removed 9 rows and 0 columns
Presolve time: 0.00s
Presolved: 189 rows, 57 columns, 443 nonzeros
Presolved model has 47 bilinear constraint(s)
Variable types: 57 continuous, 0 integer (0 binary)

Root relaxation: objective -1.743721e+00, 44 iterations, 0.00 seconds

    Nodes    |    Current Node    |     Objective Bounds      |     Work
 Expl Unexpl |  Obj  Depth IntInf | Incumbent    BestBd   Gap | It/Node Time

     0     0   -1.74372    0   38          -   -1.74372      -     -    0s
H    0     0                       0.6147548   -1.74372   384%     -    0s
     0     0   -1.64739    0    1    0.61475   -1.64739   368%     -    0s
H    0     0                      -1.6450460   -1.64739  0.14%     -    0s
     0     0     cutoff    0        -1.64505   -1.64505  0.00%     -    0s

Cutting planes:
  RLT: 25
  BQP: 3

Explored 1 nodes (76 simplex iterations) in 0.01 seconds
Thread count was 32 (of 72 available processors)

Solution count 2: -1.64505 0.614755 
No other solutions better than -1.64505

Optimal solution found (tolerance 1.00e-04)
Best objective -1.645045978473e+00, best bound -1.645045978473e+00, gap 0.0000%

User-callback calls 78, time in user-callback 0.00 sec
Gurobi Optimizer version 9.1.2 build v9.1.2rc0 (linux64)
Thread count: 36 physical cores, 72 logical processors, using up to 32 threads
Optimize a model with 24 rows, 120 columns and 2480 nonzeros
Model fingerprint: 0x7aeb0a93
Model has 100 quadratic constraints
Coefficient statistics:
  Matrix range     [8e-06, 4e+00]
  QMatrix range    [1e+00, 1e+00]
  QLMatrix range   [1e+00, 1e+00]
  Objective range  [8e-03, 2e+00]
  Bounds range     [1e+00, 1e+00]
  RHS range        [1e+00, 1e+00]
Presolve removed 16 rows and 0 columns

Continuous model is non-convex -- solving as a MIP.

Presolve removed 16 rows and 0 columns
Presolve time: 0.00s
Presolved: 408 rows, 120 columns, 1350 nonzeros
Presolved model has 100 bilinear constraint(s)
Variable types: 120 continuous, 0 integer (0 binary)

Root relaxation: objective -1.143569e+01, 127 iterations, 0.00 seconds

    Nodes    |    Current Node    |     Objective Bounds      |     Work
 Expl Unexpl |  Obj  Depth IntInf | Incumbent    BestBd   Gap | It/Node Time

     0     0  -11.43569    0  100          -  -11.43569      -     -    0s
H    0     0                       0.6447807  -11.43569  1874%     -    0s
     0     0   -8.24181    0   90    0.64478   -8.24181  1378%     -    0s
H    0     0                      -0.0583462   -8.24181      -     -    0s
     0     0   -8.24074    0   90   -0.05835   -8.24074      -     -    0s
     0     0   -7.33839    0   90   -0.05835   -7.33839      -     -    0s
H    0     0                      -0.9672785   -7.33839   659%     -    0s
     0     0   -7.33042    0   90   -0.96728   -7.33042   658%     -    0s
     0     0   -7.06468    0  100   -0.96728   -7.06468   630%     -    0s
     0     0   -7.02354    0  100   -0.96728   -7.02354   626%     -    0s
     0     0   -6.83236    0  100   -0.96728   -6.83236   606%     -    0s
H    0     0                      -1.0573788   -6.83236   546%     -    0s
     0     0   -6.82270    0  100   -1.05738   -6.82270   545%     -    0s
     0     0   -6.79570    0  100   -1.05738   -6.79570   543%     -    0s
     0     0   -6.79328    0   91   -1.05738   -6.79328   542%     -    0s
     0     0   -6.79319    0   91   -1.05738   -6.79319   542%     -    0s
     0     0   -6.79179    0  100   -1.05738   -6.79179   542%     -    0s
     0     0   -6.79164    0  100   -1.05738   -6.79164   542%     -    0s
H    0     0                      -2.3712269   -6.79164   186%     -    0s
H    0     0                      -3.9467109   -6.79164  72.1%     -    0s
H    0     0                      -4.0242214   -6.79164  68.8%     -    0s
     0     2   -6.79164    0  100   -4.02422   -6.79164  68.8%     -    0s
*  806   708              29      -5.0731811   -6.01313  18.5%  34.2    0s
* 1195   727              37      -5.0836782   -5.87997  15.7%  30.1    0s
* 1196   727              37      -5.0836823   -5.87997  15.7%  30.0    0s
* 1422   859              28      -5.1573571   -5.87997  14.0%  28.9    0s
* 1527  1020              35      -5.1912525   -5.87997  13.3%  27.9    0s
* 1738  1020              34      -5.1912675   -5.87997  13.3%  26.2    0s
* 1897  1218              34      -5.5318961   -5.76536  4.22%  25.3    0s
* 2097  1218              20      -5.5975730   -5.76536  3.00%  23.7    0s

Cutting planes:
  RLT: 89
  BQP: 11
  PSD: 16

Explored 2667 nodes (52203 simplex iterations) in 0.69 seconds
Thread count was 32 (of 72 available processors)

Solution count 10: -5.59757 -5.5319 -5.19127 ... -3.94671
No other solutions better than -5.59757

Optimal solution found (tolerance 1.00e-04)
Best objective -5.597572983762e+00, best bound -5.597572983762e+00, gap 0.0000%

User-callback calls 5624, time in user-callback 0.00 sec



objective value: -5.597572983761792
objective bound: -5.597572983761792
x_opt: [0.0, 0.9999999999999999, 1.0, 1.0, 1.0, 0.0, 0.0, 0.0, 0.2684429354784469, 1.0, 0.0, 0.2688430385312819, 1.0, 0.9154013895975246, 1.0, 2.153275993733057e-6, 0.0, 0.0, 0.0, 0.5430893838732961]
GUROBI solution time: 0.687891960144043




